RT is False
Default write of storage_offers_DA.csv just to have a file (but constraint should be inactive)
Reading model...
...model read.
creating competitive generators file...
...competitive generators recorded.
Loading data...
.. day-ahead data read.
Compiling instance...
...instance created.
Creating Offer Mitigation (model will solve as dispatch if TRUE)...
...storage offer mitigation file created
Converting model to MPEC...
...converted
MIP
NOTE: initial MIP solve with only storage competitive to get feasible solution
Solving...

Welcome to IBM(R) ILOG(R) CPLEX(R) Interactive Optimizer 12.9.0.0
  with Simplex, Mixed Integer & Barrier Optimizers
5725-A06 5725-A29 5724-Y48 5724-Y49 5724-Y54 5724-Y55 5655-Y21
Copyright IBM Corp. 1988, 2019.  All Rights Reserved.

Type 'help' for a list of available commands.
Type 'help' followed by a command name for more
information on commands.

CPLEX> Logfile 'cplex.log' closed.
Logfile 'C:\Users\Luke\Desktop\competitiveMPEC_1.16\logs\tmp4e7nhq11.cplex.log' open.
CPLEX> New value for parallel optimization mode: -1
CPLEX> New value for mixed integer optimality gap tolerance: 0.01
CPLEX> New value for feasibility tolerance: 1e-05
CPLEX> New value for deterministic time limit in ticks: 350000
CPLEX> Problem 'C:\Users\Luke\Desktop\competitiveMPEC_1.16\logs\tmpcs9wlpc6.pyomo.lp' read.
Read time = 0.19 sec. (13.82 ticks)
CPLEX> Problem name         : C:\Users\Luke\Desktop\competitiveMPEC_1.16\logs\tmpcs9wlpc6.pyomo.lp
Objective sense      : Maximize
Variables            :   53321  [Nneg: 889,  Box: 21854,  Free: 3480,
                                 Binary: 27098]
Objective nonzeros   :    8904
Linear constraints   :  122140  [Less: 40959,  Greater: 58612,  Equal: 22569]
  Nonzeros           :  288399
  RHS nonzeros       :   66924

Variables            : Min LB: -5000.000        Max UB: 5000.000       
Objective nonzeros   : Min   : 0.1000000        Max   : 722.0000       
Linear constraints   :
  Nonzeros           : Min   : 0.1000000        Max   : 2910000.       
  RHS nonzeros       : Min   : 0.1000000        Max   : 3000000.       
CPLEX> CPXPARAM_Parallel                                -1
CPXPARAM_Simplex_Tolerances_Feasibility          1.0000000000000001e-05
CPXPARAM_DetTimeLimit                            350000
CPXPARAM_MIP_Tolerances_MIPGap                   0.01
Tried aggregator 3 times.
MIP Presolve eliminated 88381 rows and 19206 columns.
MIP Presolve added 3289 rows and 0 columns.
MIP Presolve modified 24406 coefficients.
Aggregator did 12807 substitutions.
Reduced MIP has 24241 rows, 20721 columns, and 67983 nonzeros.
Reduced MIP has 8172 binaries, 0 generals, 0 SOSs, and 0 indicators.
Presolve time = 0.22 sec. (165.78 ticks)
Probing fixed 418 vars, tightened 5820 bounds.
Probing time = 0.05 sec. (20.61 ticks)
Tried aggregator 2 times.
MIP Presolve eliminated 930 rows and 838 columns.
MIP Presolve modified 2946 coefficients.
Aggregator did 51 substitutions.
Reduced MIP has 23260 rows, 19832 columns, and 65132 nonzeros.
Reduced MIP has 7753 binaries, 0 generals, 0 SOSs, and 0 indicators.
Presolve time = 0.11 sec. (88.57 ticks)
Probing fixed 0 vars, tightened 205 bounds.
Probing time = 0.08 sec. (20.46 ticks)
Clique table members: 37981.
MIP emphasis: balance optimality and feasibility.
MIP search method: dynamic search.
Parallel mode: opportunistic, using up to 24 threads.
Root relaxation solution time = 0.47 sec. (711.01 ticks)

        Nodes                                         Cuts/
   Node  Left     Objective  IInf  Best Integer    Best Bound    ItCnt     Gap

      0     0   113165.3190   253                 113165.3190     6441         
      0     0   112386.3262   150                   Cuts: 190     6641         
      0     0   112286.7042   116                   Cuts: 174     6722         
      0     0   112269.3243   113                    Cuts: 20     6751         
      0     0   112250.2323   118                    Cuts: 15     6773         
      0     0   112226.5135   117                    Cuts: 11     6785         
      0     0   112205.4180   121                Flowcuts: 12     6797         
      0     0   112204.3394   122                     Cuts: 2     6799         
      0     0   112202.6373   122                 Flowcuts: 1     6800         
      0    24   101414.3587   110                     Cuts: 3     7086         
Elapsed time = 5.39 sec. (4247.86 ticks, tree = 0.21 MB, solutions = 0)
    205    38    99845.8657   106                 112193.0375     7274         
    585   313    95010.3345    67                 111820.9981    10226         
   1066   398   111210.4740    70                 111820.9981    11023         
   1505  1254   111049.7730   104                 111820.9981    23537         
   1992  1212    78506.6701    37                 111820.9981    22731         
   2477  1569   109732.2213    51                 111730.8695    35653         
   2919  1833   109537.5352    64                 111730.8695    43846         
   3341  2340   108932.4389     9                 111730.8695    58592         
   3822  3132   109265.4672    26                 111730.8695    70778         
   5570  4218    99758.9279    11                 111730.8695    89523         
Elapsed time = 13.78 sec. (7353.12 ticks, tree = 50.28 MB, solutions = 0)
*  6555+ 2568                       103859.3624   111730.8695             7.58%
   7922  3367        cutoff         103859.3624   111730.8695   152695    7.58%
   8250    85   109447.3012   118   103859.3624   111274.6437   154305    7.14%
   9014   135   110157.7175   120   103859.3624   111274.6437   155064    7.14%
   9709   307   110120.0653   122   103859.3624   111236.3097   158084    7.10%
  10375  1161   104313.9300    81   103859.3624   111236.3097   167417    7.10%
  12665  3177   107119.5107    10   103859.3624   110892.8805   178993    6.77%
  15423  3493   106829.5548   115   103859.3624   110892.8805   180357    6.77%
  18605  5829   104907.8749    12   108052.8917   110892.8805   191513    2.63%
  21601  6694   106457.2129     8   108295.0852   110359.1486   195864    1.91%
Elapsed time = 45.38 sec. (19778.75 ticks, tree = 46.36 MB, solutions = 7)
  24123  2658   109287.3993    21   108295.0852   110359.1486   225575    1.91%
  26159  3414   108795.8215    92   108495.2465   110119.7268   240005    1.50%
  28214  4414   109666.5325   117   108495.2465   110016.5047   252534    1.40%
* 29270  5138      integral     0   108904.1950   110016.5047   265548    1.02%
  29898  4335   108966.7786   130   108904.1950   110016.5047   251689    1.02%
  30648  5360   109131.8581   127   108904.1950   110016.5047   268757    1.02%

GUB cover cuts applied:  1
Clique cuts applied:  3
Cover cuts applied:  34
Implied bound cuts applied:  35
Flow cuts applied:  120
Mixed integer rounding cuts applied:  114
Gomory fractional cuts applied:  15

Root node processing (before b&c):
  Real time             =    4.73 sec. (4213.15 ticks)
Parallel b&c, 24 threads:
  Real time             =   47.67 sec. (20419.02 ticks)
  Sync time (average)   =    1.52 sec.
  Wait time (average)   =    0.07 sec.
                          ------------
Total (root+branch&cut) =   52.41 sec. (24632.17 ticks)

Solution pool: 9 solutions saved.

MIP - Integer optimal, tolerance (0.01/1e-06):  Objective =  1.0890419501e+05
Current MIP best bound =  1.0972427814e+05 (gap = 820.083, 0.75%)
Solution time =   52.42 sec.  Iterations = 282845  Nodes = 30659 (3108)
Deterministic time = 24632.32 ticks  (469.89 ticks/sec)

CPLEX> Incumbent solution written to file 'C:\Users\Luke\Desktop\competitiveMPEC_1.16\logs\tmpjb6niawm.cplex.sol'.
CPLEX> Exporting results... 
